(set-logic ALL)
(set-option :produce-models true)
(declare-sort BoundSet 0)
(declare-sort UnboundSet 0)
(declare-fun AreMaking (BoundSet BoundSet) Bool)
(declare-fun AreInSwimtrunks (BoundSet) Bool)
(declare-fun IsWalkingDownTheStreet (BoundSet) Bool)
(declare-fun IsInLightBlueJeans (BoundSet) Bool)
(declare-fun ( (Bool) Bool)
(declare-fun IsInDarkBlueJeans (BoundSet) Bool)
(assert (not (=> (exists ((c BoundSet)) (exists ((a BoundSet)) (exists ((b BoundSet)) (and (AreMaking a b) (AreInSwimtrunks c))))) (exists ((f BoundSet)) (exists ((e BoundSet)) (or (exists ((d BoundSet)) (( (and (IsWalkingDownTheStreet d) (IsInLightBlueJeans e)))) (and (IsWalkingDownTheStreet d) (IsInDarkBlueJeans f))))))))
(check-sat)
(get-model)